
Gurobi 9.5.0 (linux64) logging started Fri Dec 15 10:44:09 2023

Set parameter LogFile to value "/lustre1/scratch/348/vsc34888/JointResearch/05.Models/06.Benchmarking/K.Investments_per_hour/RTS24_mod1_ByStages_nc90/openStarNet_RTS24_mod1_ByStages_nc90.log"
Set parameter Method to value 2
Set parameter MIPFocus to value 1
Set parameter Presolve to value 2
Set parameter RINS to value 100
Set parameter MIPGap to value 0.01
Set parameter Threads to value 36
Set parameter TimeLimit to value 259200
Set parameter IterationLimit to value 760000000
Gurobi Optimizer version 9.5.0 build v9.5.0rc5 (linux64)
Thread count: 36 physical cores, 36 logical processors, using up to 36 threads
Optimize a model with 32308 rows, 21775 columns and 87945 nonzeros
Model fingerprint: 0x785f36bb
Variable types: 21754 continuous, 21 integer (21 binary)
Coefficient statistics:
  Matrix range     [1e-03, 2e+03]
  Objective range  [1e+00, 1e+00]
  Bounds range     [4e-05, 2e+00]
  RHS range        [4e-05, 2e+00]
Presolve removed 19224 rows and 11008 columns
Presolve time: 0.12s
Presolved: 13084 rows, 10767 columns, 47214 nonzeros
Variable types: 10746 continuous, 21 integer (21 binary)
Found heuristic solution: objective 100.7175667
Root relaxation presolved: 13084 rows, 10767 columns, 47214 nonzeros

Root barrier log...

Ordering time: 0.00s

Barrier statistics:
 Dense cols : 21
 AA' NZ     : 8.768e+04
 Factor NZ  : 2.513e+05 (roughly 12 MB of memory)
 Factor Ops : 5.150e+06 (less than 1 second per iteration)
 Threads    : 36

                  Objective                Residual
Iter       Primal          Dual         Primal    Dual     Compl     Time
   0   6.34026500e+05 -4.23327974e+08  5.23e+00 6.05e+02  3.88e+04     0s
   1   8.73082048e+04 -1.08336229e+08  6.62e-01 1.10e-08  5.30e+03     0s
   2   3.00927547e+04 -1.65933705e+07  1.40e-01 1.34e-08  6.79e+02     0s
   3   1.59518729e+04 -1.29879106e+06  5.66e-03 3.75e-10  4.40e+01     0s
   4   1.05750702e+04 -1.41098985e+05  5.83e-13 2.34e-10  4.98e+00     0s
   5   4.53318913e+03 -3.77391558e+04  3.31e-13 6.09e-11  1.39e+00     0s
   6   1.25472620e+03 -1.08843282e+04  3.04e-13 1.73e-11  3.98e-01     0s
   7   3.78254299e+02 -2.71525191e+03  1.91e-13 3.64e-12  1.01e-01     0s
   8   2.18217135e+02 -6.95700211e+02  2.10e-13 3.64e-12  3.00e-02     0s
   9   1.54282663e+02 -2.53919880e+02  1.16e-13 1.82e-12  1.34e-02     0s
  10   1.02688070e+02 -6.93943380e+01  6.58e-14 7.28e-12  5.65e-03     0s
  11   7.27451603e+01  1.61778230e+01  4.53e-13 1.82e-12  1.86e-03     0s
  12   6.56096567e+01  3.17170137e+01  4.07e-13 3.64e-12  1.11e-03     0s
  13   5.96858360e+01  3.93280255e+01  3.83e-13 1.82e-12  6.68e-04     0s
  14   5.55424829e+01  4.21754647e+01  2.09e-12 3.64e-12  4.39e-04     0s
  15   5.39251281e+01  4.49909416e+01  9.83e-12 3.64e-12  2.93e-04     0s
  16   5.28492541e+01  4.61472135e+01  9.17e-12 3.64e-12  2.20e-04     0s
  17   5.18105993e+01  4.68829176e+01  5.62e-12 1.82e-12  1.62e-04     0s
  18   5.09717814e+01  4.79757015e+01  6.43e-12 1.82e-12  9.83e-05     0s
  19   5.04315105e+01  4.84831939e+01  1.09e-11 1.82e-12  6.39e-05     0s
  20   5.03277804e+01  4.89593407e+01  9.83e-12 3.64e-12  4.49e-05     0s
  21   5.01974871e+01  4.94845952e+01  1.35e-11 1.82e-12  2.34e-05     0s
  22   5.00493455e+01  4.96798127e+01  2.45e-11 1.82e-12  1.21e-05     0s
  23   5.00052926e+01  4.97147886e+01  1.06e-11 1.82e-12  9.53e-06     0s
  24   4.99304584e+01  4.97859817e+01  3.19e-11 7.28e-12  4.74e-06     0s
  25   4.99078336e+01  4.98933898e+01  3.02e-11 3.64e-12  4.74e-07     0s
  26   4.99044931e+01  4.99019083e+01  7.68e-11 7.28e-12  8.48e-08     0s
  27   4.99039617e+01  4.99033833e+01  1.25e-10 7.28e-12  1.90e-08     0s
  28   4.99038604e+01  4.99036560e+01  2.65e-10 3.64e-12  6.71e-09     0s
  29   4.99038362e+01  4.99037737e+01  9.57e-10 1.82e-12  2.05e-09     0s
  30   4.99038309e+01  4.99038249e+01  6.67e-10 1.82e-12  1.97e-10     1s
  31   4.99038306e+01  4.99038301e+01  1.87e-10 1.82e-12  1.73e-11     1s
  32   4.99038306e+01  4.99038306e+01  3.20e-10 7.28e-12  1.76e-14     1s

Barrier solved model in 32 iterations and 0.52 seconds (0.43 work units)
Optimal objective 4.99038306e+01


Root relaxation: objective 4.990383e+01, 1819 iterations, 0.35 seconds (0.26 work units)

    Nodes    |    Current Node    |     Objective Bounds      |     Work
 Expl Unexpl |  Obj  Depth IntInf | Incumbent    BestBd   Gap | It/Node Time

     0     0   49.90383    0   17  100.71757   49.90383  50.5%     -    0s
     0     0   51.34514    0   14  100.71757   51.34514  49.0%     -    1s
H    0     0                      95.6146702   51.34514  46.3%     -    1s
H    0     0                      86.5633974   51.37245  40.7%     -    1s
     0     0   51.37245    0   13   86.56340   51.37245  40.7%     -    1s
     0     0   51.37375    0   14   86.56340   51.37375  40.7%     -    1s
     0     0   51.60189    0   11   86.56340   51.60189  40.4%     -    2s
     0     0   51.63998    0   10   86.56340   51.63998  40.3%     -    2s
     0     0   51.64033    0   11   86.56340   51.64033  40.3%     -    2s
     0     0   51.72257    0   11   86.56340   51.72257  40.2%     -    2s
     0     0   51.96057    0   11   86.56340   51.96057  40.0%     -    2s
     0     0   51.96057    0   11   86.56340   51.96057  40.0%     -    2s
     0     0   52.54361    0   13   86.56340   52.54361  39.3%     -    3s
     0     0   52.54406    0   13   86.56340   52.54406  39.3%     -    3s
     0     0   52.54406    0   12   86.56340   52.54406  39.3%     -    3s
H    0     0                      81.0108246   52.54406  35.1%     -    4s
H    0     0                      69.5868476   52.54406  24.5%     -   15s
     0     2   52.54406    0   12   69.58685   52.54406  24.5%     -   16s
    99   124   57.65092    7   13   69.58685   55.19190  20.7%   595   21s
H  103   124                      69.3935200   55.19190  20.5%   593   21s
   252   185   69.32953    9   12   69.39352   55.19190  20.5%   504   26s
   299   204   65.96392   10   11   69.39352   55.19190  20.5%   490   52s
   694   272   69.24757   17    3   69.39352   55.19190  20.5%   427   55s
  1169   299   61.82425    7   14   69.39352   58.06040  16.3%   388   61s
  1896   239   64.05403    9   12   69.39352   58.42384  15.8%   355   71s
  2589   108   63.54944    9   12   69.39352   61.82949  10.9%   329   85s

Cutting planes:
  Gomory: 3
  Implied bound: 19
  MIR: 363
  Relax-and-lift: 33

Explored 3102 nodes (963592 simplex iterations) in 87.36 seconds (110.12 work units)
Thread count was 36 (of 36 available processors)

Solution count 6: 69.3935 69.5868 81.0108 ... 100.718

Optimal solution found (tolerance 1.00e-02)
Best objective 6.939351996709e+01, best bound 6.939351996709e+01, gap 0.0000%

Gurobi 9.5.0 (linux64) logging started Fri Dec 15 10:45:41 2023

Set parameter LogFile to value "/lustre1/scratch/348/vsc34888/JointResearch/05.Models/06.Benchmarking/K.Investments_per_hour/RTS24_mod1_ByStages_nc90/openStarNet_RTS24_mod1_ByStages_nc90.log"
Set parameter Method to value 2
Set parameter MIPFocus to value 1
Set parameter Presolve to value 2
Set parameter RINS to value 100
Set parameter MIPGap to value 0.01
Set parameter Threads to value 36
Set parameter TimeLimit to value 259200
Set parameter IterationLimit to value 760000000
No parameters matching 'relax_integrality' found
Gurobi Optimizer version 9.5.0 build v9.5.0rc5 (linux64)
Thread count: 36 physical cores, 36 logical processors, using up to 36 threads
Optimize a model with 32308 rows, 21754 columns and 80280 nonzeros
Model fingerprint: 0xf255011f
Coefficient statistics:
  Matrix range     [1e-03, 2e+03]
  Objective range  [1e+00, 1e+00]
  Bounds range     [4e-05, 2e+00]
  RHS range        [4e-05, 2e+01]
Presolve removed 27165 rows and 12461 columns
Presolve time: 0.04s
Presolved: 5143 rows, 9475 columns, 23071 nonzeros

Ordering time: 0.00s

Barrier statistics:
 AA' NZ     : 1.240e+04
 Factor NZ  : 4.448e+04 (roughly 5 MB of memory)
 Factor Ops : 5.800e+05 (less than 1 second per iteration)
 Threads    : 1

                  Objective                Residual
Iter       Primal          Dual         Primal    Dual     Compl     Time
   0   1.62586800e+06 -1.16672376e+08  9.08e+00 1.64e+03  7.44e+04     0s
   1   1.10065715e+05 -8.13342364e+07  5.84e-01 5.68e-11  8.63e+03     0s
   2   4.53969759e+04 -2.88016254e+07  1.81e-01 8.24e-11  2.39e+03     0s
   3   2.06979021e+04 -5.33801418e+06  7.12e-03 5.16e-11  3.42e+02     0s
   4   1.68005466e+04 -2.41357687e+05  1.10e-04 5.27e-11  1.60e+01     0s
   5   8.10708660e+03 -6.56639328e+04  8.00e-08 5.04e-11  4.58e+00     0s
   6   2.87959036e+03 -1.43890116e+04  9.77e-09 2.13e-11  1.07e+00     0s
   7   5.74744742e+02 -2.16680864e+03  2.52e-10 7.28e-12  1.70e-01     0s
   8   2.19737722e+02 -5.21384676e+02  5.59e-12 7.28e-12  4.60e-02     0s
   9   1.46678060e+02 -1.78576753e+02  2.33e-12 7.28e-12  2.02e-02     0s
  10   1.08998143e+02 -2.57177933e+01  1.05e-12 7.28e-12  8.36e-03     0s
  11   8.73950128e+01  2.69758868e+01  4.18e-13 1.82e-12  3.75e-03     0s
  12   7.88941357e+01  5.22672898e+01  2.13e-13 7.28e-12  1.65e-03     0s
  13   7.21852417e+01  6.31969332e+01  3.68e-13 7.28e-12  5.58e-04     0s
  14   7.02358547e+01  6.83635272e+01  4.72e-13 7.28e-12  1.16e-04     0s
  15   6.96370053e+01  6.90695311e+01  4.30e-12 1.82e-12  3.52e-05     0s
  16   6.94812091e+01  6.92789012e+01  1.44e-12 1.82e-12  1.26e-05     0s
  17   6.94241382e+01  6.93691926e+01  8.68e-13 7.28e-12  3.41e-06     0s
  18   6.94001844e+01  6.93877008e+01  1.39e-12 7.28e-12  7.75e-07     0s
  19   6.93942294e+01  6.93929513e+01  4.77e-12 7.28e-12  7.93e-08     0s
  20   6.93935237e+01  6.93935131e+01  4.82e-11 1.46e-11  6.58e-10     0s
  21   6.93935200e+01  6.93935200e+01  8.21e-12 7.28e-12  6.58e-13     0s
  22   6.93935200e+01  6.93935200e+01  3.53e-13 7.28e-12  2.23e-16     0s

Barrier solved model in 22 iterations and 0.12 seconds (0.11 work units)
Optimal objective 6.93935200e+01

Crossover log...

    1070 DPushes remaining with DInf 0.0000000e+00                 0s
       0 DPushes remaining with DInf 0.0000000e+00                 0s

     247 PPushes remaining with PInf 0.0000000e+00                 0s
       0 PPushes remaining with PInf 0.0000000e+00                 0s

  Push phase complete: Pinf 0.0000000e+00, Dinf 4.6140214e-13      0s

Iteration    Objective       Primal Inf.    Dual Inf.      Time
     254    6.9393520e+01   0.000000e+00   0.000000e+00      0s

Use crossover to convert LP symmetric solution to basic solution...
Crossover log...

       0 DPushes remaining with DInf 0.0000000e+00                 0s

     130 PPushes remaining with PInf 0.0000000e+00                 0s
       0 PPushes remaining with PInf 0.0000000e+00                 0s

  Push phase complete: Pinf 0.0000000e+00, Dinf 4.1428863e-13      0s

Iteration    Objective       Primal Inf.    Dual Inf.      Time
     391    6.9393520e+01   0.000000e+00   0.000000e+00      0s

Solved in 391 iterations and 0.17 seconds (0.13 work units)
Optimal objective  6.939351997e+01

Gurobi 10.0.0 (win64) logging started Sat Dec 16 12:22:13 2023

Set parameter LogFile to value "C:\Users\ealvarezq\Documents\GitHub\Comillas\Models\JointResearch\05. Models\06.Benchmarking\K.Investments_per_hour\RTS24_mod1_ByStages_nc90/openStarNet_RTS24_mod1_ByStages_nc90.log"
Set parameter Method to value 2
Set parameter MIPFocus to value 1
Set parameter Presolve to value 2
Set parameter RINS to value 100
Set parameter MIPGap to value 0.01
Set parameter Threads to value 9
Set parameter TimeLimit to value 259200
Set parameter IterationLimit to value 760000000
Gurobi Optimizer version 10.0.0 build v10.0.0rc2 (win64)

CPU model: Intel(R) Core(TM) i7-8700 CPU @ 3.20GHz, instruction set [SSE2|AVX|AVX2]
Thread count: 6 physical cores, 12 logical processors, using up to 9 threads

Optimize a model with 31954 rows, 21524 columns and 86942 nonzeros
Model fingerprint: 0x0f6d381a
Variable types: 21503 continuous, 21 integer (21 binary)
Coefficient statistics:
  Matrix range     [1e-03, 2e+03]
  Objective range  [1e+00, 1e+00]
  Bounds range     [4e-05, 3e+00]
  RHS range        [4e-05, 3e+00]
Presolve removed 19016 rows and 10883 columns
Presolve time: 0.12s
Presolved: 12938 rows, 10641 columns, 46684 nonzeros
Variable types: 10620 continuous, 21 integer (21 binary)
Found heuristic solution: objective 106.5660876
Root relaxation presolved: 12938 rows, 10641 columns, 46684 nonzeros

Root barrier log...

Ordering time: 0.01s

Barrier statistics:
 Dense cols : 21
 AA' NZ     : 8.672e+04
 Factor NZ  : 2.485e+05 (roughly 12 MB of memory)
 Factor Ops : 5.094e+06 (less than 1 second per iteration)
 Threads    : 9

                  Objective                Residual
Iter       Primal          Dual         Primal    Dual     Compl     Time
   0   6.37192786e+05 -2.28175852e+08  5.23e+00 5.25e+02  2.11e+04     0s
   1   8.74166032e+04 -5.83826991e+07  6.62e-01 8.85e-09  2.89e+03     0s
   2   3.11605575e+04 -8.59416462e+06  1.50e-01 2.37e-09  3.63e+02     0s
   3   1.57530216e+04 -8.10305404e+05  4.87e-03 4.92e-10  2.79e+01     0s
   4   9.55096096e+03 -8.98235476e+04  4.93e-13 6.03e-11  3.30e+00     0s
   5   3.78310985e+03 -2.05553331e+04  4.51e-13 1.17e-11  8.08e-01     0s
   6   1.09255818e+03 -5.76303108e+03  1.96e-13 3.20e-12  2.28e-01     0s
   7   3.41741525e+02 -1.72728953e+03  1.69e-13 2.28e-12  6.87e-02     0s
   8   2.16300362e+02 -3.57868616e+02  1.22e-13 2.81e-12  1.91e-02     0s
   9   1.49300580e+02 -7.77287182e+01  1.98e-13 5.50e-12  7.53e-03     0s
  10   1.00598668e+02 -1.02936679e+01  1.73e-13 3.14e-12  3.68e-03     0s
  11   8.97442963e+01  1.87425924e+01  3.64e-13 2.73e-12  2.36e-03     0s
  12   7.56908137e+01  3.60176293e+01  7.62e-13 3.00e-12  1.32e-03     0s
  13   6.58333874e+01  4.11996633e+01  1.22e-12 3.19e-12  8.17e-04     0s
  14   6.00360686e+01  4.75680739e+01  9.12e-13 1.87e-12  4.14e-04     0s
  15   5.91620770e+01  4.88349019e+01  8.75e-13 2.47e-12  3.43e-04     0s
  16   5.70830731e+01  5.23607702e+01  1.10e-12 3.74e-12  1.57e-04     0s
  17   5.56515529e+01  5.29758219e+01  3.27e-12 3.72e-12  8.88e-05     0s
  18   5.48381601e+01  5.33157167e+01  6.38e-12 3.07e-12  5.05e-05     0s
  19   5.45915226e+01  5.35720209e+01  6.36e-12 1.22e-12  3.38e-05     0s
  20   5.44537532e+01  5.36610967e+01  5.77e-12 1.13e-12  2.63e-05     0s
  21   5.43097423e+01  5.37849913e+01  1.26e-11 3.53e-12  1.74e-05     0s
  22   5.41885518e+01  5.38200741e+01  2.68e-11 2.21e-12  1.22e-05     0s
  23   5.41239121e+01  5.38727859e+01  2.66e-11 3.02e-12  8.33e-06     0s
  24   5.40020117e+01  5.39334309e+01  4.81e-11 2.41e-12  2.28e-06     0s
  25   5.39700616e+01  5.39488473e+01  8.85e-11 2.39e-12  7.04e-07     0s
  26   5.39606022e+01  5.39562741e+01  5.10e-10 1.54e-12  1.44e-07     0s
  27   5.39582726e+01  5.39569021e+01  5.38e-10 3.22e-12  4.55e-08     0s
  28   5.39574681e+01  5.39571301e+01  4.69e-10 1.80e-12  1.12e-08     0s
  29   5.39573226e+01  5.39572466e+01  6.69e-10 4.35e-12  2.52e-09     0s
  30   5.39573030e+01  5.39573009e+01  6.93e-10 2.32e-12  6.96e-11     0s
  31   5.39573019e+01  5.39573019e+01  5.73e-10 2.00e-12  3.21e-13     0s

Barrier solved model in 31 iterations and 0.46 seconds (0.43 work units)
Optimal objective 5.39573019e+01


Root relaxation: objective 5.395730e+01, 1726 iterations, 0.29 seconds (0.26 work units)

    Nodes    |    Current Node    |     Objective Bounds      |     Work
 Expl Unexpl |  Obj  Depth IntInf | Incumbent    BestBd   Gap | It/Node Time

     0     0   53.95730    0   17  106.56609   53.95730  49.4%     -    0s
     0     0   55.63409    0   14  106.56609   55.63409  47.8%     -    1s
H    0     0                     102.2442547   55.63409  45.6%     -    1s
H    0     0                      92.1608658   55.71276  39.5%     -    1s
     0     0   55.71276    0   14   92.16087   55.71276  39.5%     -    1s
     0     0   55.72524    0   15   92.16087   55.72524  39.5%     -    1s
     0     0   55.72841    0   15   92.16087   55.72841  39.5%     -    1s
     0     0   55.93799    0   12   92.16087   55.93799  39.3%     -    1s
     0     0   55.95775    0   11   92.16087   55.95775  39.3%     -    2s
     0     0   55.96558    0   13   92.16087   55.96558  39.3%     -    2s
     0     0   55.98395    0    9   92.16087   55.98395  39.3%     -    2s
     0     0   55.98530    0   10   92.16087   55.98530  39.3%     -    2s
     0     0   55.98534    0   10   92.16087   55.98534  39.3%     -    2s
H    0     0                      88.3683413   56.02657  36.6%     -    2s
     0     0   56.02657    0   14   88.36834   56.02657  36.6%     -    2s
     0     0   56.02710    0   10   88.36834   56.02710  36.6%     -    2s
     0     0   56.02710    0   10   88.36834   56.02710  36.6%     -    2s
H    0     0                      85.7335586   56.02710  34.6%     -    2s
     0     0   56.02710    0   10   85.73356   56.02710  34.6%     -    2s
     0     0   56.85725    0   10   85.73356   56.85725  33.7%     -    3s
H    0     0                      75.6638980   56.85725  24.9%     -    4s
H    0     0                      73.6551114   56.85725  22.8%     -    7s
     0     2   56.85725    0   10   73.65511   56.85725  22.8%     -    7s
    70    74   68.74962    9   12   73.65511   58.48976  20.6%   591   10s
    99    92     cutoff   12        73.65511   58.97176  19.9%   614   18s
   152   110   72.40993    9   12   73.65511   58.97176  19.9%   618   20s
   348   163     cutoff   11        73.65511   61.15048  17.0%   527   25s
   616   204     cutoff    8        73.65511   61.35701  16.7%   488   30s
   901   226     cutoff   11        73.65511   64.72108  12.1%   459   35s
   997   230   71.04350   10   10   73.65511   66.10438  10.3%   452   47s
  1190   258   71.35842   13    8   73.65511   67.06443  8.95%   434   57s
* 1263   258              21      73.5991215   67.06443  8.88%   428   57s
  1471   294     cutoff    9        73.59912   68.09280  7.48%   410   60s
* 1524   294              21      73.5583959   68.16202  7.34%   406   60s
  1599   291   73.41220   13    8   73.55840   68.32159  7.12%   399   81s
H 1600   291                      73.4771009   68.32159  7.02%   398   81s
  1797   304     cutoff   14        73.47710   68.64568  6.58%   381   94s
  1893   307   72.50461   17    4   73.47710   68.77090  6.40%   375   96s
  2250   264   73.03661   10   10   73.47710   69.81022  4.99%   353  101s
  2741    74     cutoff   15        73.47710   70.85043  3.57%   329  106s

Cutting planes:
  Gomory: 2
  Implied bound: 55
  MIR: 437
  Relax-and-lift: 72

Explored 3127 nodes (963172 simplex iterations) in 107.17 seconds (165.35 work units)
Thread count was 9 (of 12 available processors)

Solution count 10: 73.4771 73.5584 73.5991 ... 106.566

Optimal solution found (tolerance 1.00e-02)
Best objective 7.347710087027e+01, best bound 7.347710087027e+01, gap 0.0000%

Gurobi 10.0.0 (win64) logging started Sat Dec 16 12:24:02 2023

Set parameter LogFile to value "C:\Users\ealvarezq\Documents\GitHub\Comillas\Models\JointResearch\05. Models\06.Benchmarking\K.Investments_per_hour\RTS24_mod1_ByStages_nc90/openStarNet_RTS24_mod1_ByStages_nc90.log"
Set parameter Method to value 2
Set parameter MIPFocus to value 1
Set parameter Presolve to value 2
Set parameter RINS to value 100
Set parameter MIPGap to value 0.01
Set parameter Threads to value 9
Set parameter TimeLimit to value 259200
Set parameter IterationLimit to value 760000000
No parameters matching 'relax_integrality' found
Gurobi Optimizer version 10.0.0 build v10.0.0rc2 (win64)

CPU model: Intel(R) Core(TM) i7-8700 CPU @ 3.20GHz, instruction set [SSE2|AVX|AVX2]
Thread count: 6 physical cores, 12 logical processors, using up to 9 threads

Optimize a model with 31954 rows, 21503 columns and 79361 nonzeros
Model fingerprint: 0x95ec12aa
Coefficient statistics:
  Matrix range     [1e-03, 2e+03]
  Objective range  [1e+00, 1e+00]
  Bounds range     [4e-05, 3e+00]
  RHS range        [4e-05, 2e+01]
Presolve removed 26915 rows and 12450 columns
Presolve time: 0.04s
Presolved: 5039 rows, 9207 columns, 22710 nonzeros

Ordering time: 0.00s

Barrier statistics:
 AA' NZ     : 1.312e+04
 Factor NZ  : 4.959e+04 (roughly 5 MB of memory)
 Factor Ops : 7.240e+05 (less than 1 second per iteration)
 Threads    : 1

                  Objective                Residual
Iter       Primal          Dual         Primal    Dual     Compl     Time
   0   2.88310830e+06 -1.04761807e+08  1.36e+01 3.88e+03  7.56e+04     0s
   1   1.78172583e+05 -6.42069188e+07  8.61e-01 4.37e-11  7.74e+03     0s
   2   6.29701744e+04 -2.38292385e+07  2.91e-01 6.55e-11  2.20e+03     0s
   3   2.40956662e+04 -6.51939937e+06  3.92e-02 4.00e-11  4.50e+02     0s
   4   1.72439697e+04 -1.13488459e+06  3.21e-03 2.91e-11  7.23e+01     0s
   5   1.24386289e+04 -1.65244238e+05  1.10e-04 3.20e-10  1.10e+01     0s
   6   5.78910014e+03 -4.92234190e+04  4.32e-07 6.55e-11  3.41e+00     0s
   7   1.17413156e+03 -9.05611437e+03  1.56e-08 4.37e-11  6.33e-01     0s
   8   2.91035066e+02 -1.62918542e+03  1.32e-11 8.93e-12  1.19e-01     0s
   9   1.81508158e+02 -6.34573335e+02  7.11e-13 7.28e-12  5.05e-02     0s
  10   1.46039608e+02 -1.94402199e+02  1.19e-12 6.98e-12  2.11e-02     0s
  11   1.14978675e+02 -5.13180769e+01  1.75e-12 6.29e-12  1.03e-02     0s
  12   9.60145784e+01  2.06704874e+01  2.28e-12 9.34e-12  4.66e-03     0s
  13   8.09448811e+01  5.89868998e+01  2.34e-12 7.35e-12  1.36e-03     0s
  14   7.61625552e+01  7.02188432e+01  8.64e-12 6.52e-12  3.68e-04     0s
  15   7.43336954e+01  7.26639459e+01  4.12e-11 3.55e-12  1.03e-04     0s
  16   7.38126128e+01  7.31794223e+01  4.89e-11 3.71e-12  3.92e-05     0s
  17   7.35655955e+01  7.34052587e+01  2.44e-11 4.28e-12  9.93e-06     0s
  18   7.34901750e+01  7.34668963e+01  2.79e-11 7.41e-12  1.44e-06     0s
  19   7.34800865e+01  7.34755432e+01  4.22e-11 7.26e-12  2.81e-07     0s
  20   7.34771163e+01  7.34770707e+01  7.05e-11 1.03e-11  2.82e-09     0s
  21   7.34771009e+01  7.34771008e+01  6.97e-11 5.72e-12  2.82e-12     0s
  22   7.34771009e+01  7.34771009e+01  7.07e-12 7.46e-12  2.82e-15     0s

Barrier solved model in 22 iterations and 0.11 seconds (0.11 work units)
Optimal objective 7.34771009e+01

Crossover log...

    1049 DPushes remaining with DInf 0.0000000e+00                 0s
       0 DPushes remaining with DInf 0.0000000e+00                 0s

     269 PPushes remaining with PInf 0.0000000e+00                 0s
       0 PPushes remaining with PInf 0.0000000e+00                 0s

  Push phase complete: Pinf 0.0000000e+00, Dinf 5.1888001e-13      0s

Iteration    Objective       Primal Inf.    Dual Inf.      Time
     282    7.3477101e+01   0.000000e+00   0.000000e+00      0s

Use crossover to convert LP symmetric solution to basic solution...
Crossover log...

       0 DPushes remaining with DInf 0.0000000e+00                 0s

     190 PPushes remaining with PInf 0.0000000e+00                 0s
       0 PPushes remaining with PInf 0.0000000e+00                 0s

  Push phase complete: Pinf 0.0000000e+00, Dinf 5.3030990e-13      0s

Iteration    Objective       Primal Inf.    Dual Inf.      Time
     490    7.3477101e+01   0.000000e+00   0.000000e+00      0s

Solved in 490 iterations and 0.16 seconds (0.13 work units)
Optimal objective  7.347710087e+01
